(set-logic QF_UF)
(declare-fun A0 () Bool)
(declare-fun A1 () Bool)
(declare-fun A2 () Bool)
(declare-fun A3 () Bool)
(declare-fun A5 () Bool)
(declare-fun A6 () Bool)
(declare-fun A7 () Bool)
(declare-fun A8 () Bool)
(declare-fun A9 () Bool)
(declare-fun A10 () Bool)
(declare-fun A11 () Bool)
(declare-fun A12 () Bool)
(declare-fun A13 () Bool)
(declare-fun A15 () Bool)
(declare-fun A16 () Bool)
(declare-fun A17 () Bool)
(declare-fun A18 () Bool)
(declare-fun A19 () Bool)
(declare-fun A20 () Bool)
(declare-fun A21 () Bool)
(declare-fun A22 () Bool)
(declare-fun A23 () Bool)
(declare-fun A24 () Bool)
(assert (let ((.def_0 (not A18))) (let ((.def_1 (not A21))) (let ((.def_2 (or .def_1 .def_0))) (let ((.def_3 (not .def_2))) (let ((.def_4 (or A1 A22))) (let ((.def_5 (and .def_4 .def_3))) (let ((.def_6 (not .def_5))) (let ((.def_7 (not A8))) (let ((.def_8 (not A2))) (let ((.def_9 (or .def_8 .def_7))) (let ((.def_10 (not .def_9))) (let ((.def_11 (not A17))) (let ((.def_12 (not A1))) (let ((.def_13 (and .def_12 .def_11))) (let ((.def_14 (or .def_13 .def_10))) (let ((.def_15 (and .def_14 .def_6))) (let ((.def_16 (not .def_15))) (let ((.def_17 (not A20))) (let ((.def_18 (or .def_17 A11))) (let ((.def_19 (not .def_18))) (let ((.def_20 (not A9))) (let ((.def_21 (or A1 .def_20))) (let ((.def_22 (not .def_21))) (let ((.def_23 (or .def_22 .def_19))) (let ((.def_24 (not .def_23))) (let ((.def_25 (and A2 A18))) (let ((.def_26 (not .def_25))) (let ((.def_27 (not A24))) (let ((.def_28 (and A15 .def_27))) (let ((.def_29 (not .def_28))) (let ((.def_30 (or .def_29 .def_26))) (let ((.def_31 (and .def_30 .def_24))) (let ((.def_32 (not .def_31))) (let ((.def_33 (or .def_32 .def_16))) (let ((.def_34 (not .def_33))) (let ((.def_35 (not A6))) (let ((.def_36 (or A6 .def_35))) (let ((.def_37 (not .def_36))) (let ((.def_38 (not A16))) (let ((.def_39 (or .def_38 A2))) (let ((.def_40 (not .def_39))) (let ((.def_41 (or .def_40 .def_37))) (let ((.def_42 (not A0))) (let ((.def_43 (or .def_11 .def_42))) (let ((.def_44 (not .def_43))) (let ((.def_45 (or A16 A21))) (let ((.def_46 (and .def_45 .def_44))) (let ((.def_47 (not .def_46))) (let ((.def_48 (and .def_47 .def_41))) (let ((.def_49 (not .def_48))) (let ((.def_50 (not A3))) (let ((.def_51 (not A13))) (let ((.def_52 (or .def_51 .def_50))) (let ((.def_53 (not A15))) (let ((.def_54 (or A15 .def_53))) (let ((.def_55 (and .def_54 .def_52))) (let ((.def_56 (or .def_51 A5))) (let ((.def_57 (= A7 A23))) (let ((.def_58 (not .def_57))) (let ((.def_59 (or .def_58 .def_56))) (let ((.def_60 (or .def_59 .def_55))) (let ((.def_61 (or .def_60 .def_49))) (let ((.def_62 (or .def_61 .def_34))) (let ((.def_63 (not .def_62))) (let ((.def_64 (and .def_27 A22))) (let ((.def_65 (not A12))) (let ((.def_66 (and .def_65 A10))) (let ((.def_67 (not .def_66))) (let ((.def_68 (or .def_67 .def_64))) (let ((.def_69 (not .def_68))) (let ((.def_70 (or A13 A12))) (let ((.def_71 (not .def_70))) (let ((.def_72 (not A7))) (let ((.def_73 (not A23))) (let ((.def_74 (and .def_73 .def_72))) (let ((.def_75 (and .def_74 .def_71))) (let ((.def_76 (not .def_75))) (let ((.def_77 (and .def_76 .def_69))) (let ((.def_78 (not .def_77))) (let ((.def_79 (not A5))) (let ((.def_80 (or .def_79 A0))) (let ((.def_81 (not .def_80))) (let ((.def_82 (and .def_0 A15))) (let ((.def_83 (not .def_82))) (let ((.def_84 (or .def_83 .def_81))) (let ((.def_85 (and A6 .def_17))) (let ((.def_86 (not A22))) (let ((.def_87 (not A19))) (let ((.def_88 (and .def_87 .def_86))) (let ((.def_89 (and .def_88 .def_85))) (let ((.def_90 (not .def_89))) (let ((.def_91 (and .def_90 .def_84))) (let ((.def_92 (not .def_91))) (let ((.def_93 (or .def_92 .def_78))) (let ((.def_94 (not .def_93))) (let ((.def_95 (and A2 .def_1))) (let ((.def_96 (not .def_95))) (let ((.def_97 (not A10))) (let ((.def_98 (and .def_97 A22))) (let ((.def_99 (or .def_98 .def_96))) (let ((.def_100 (not .def_99))) (let ((.def_101 (not A11))) (let ((.def_102 (and .def_101 A10))) (let ((.def_103 (or A19 .def_20))) (let ((.def_104 (and .def_103 .def_102))) (let ((.def_105 (or .def_104 .def_100))) (let ((.def_106 (and .def_38 .def_42))) (let ((.def_107 (not .def_106))) (let ((.def_108 (and A23 A15))) (let ((.def_109 (and .def_108 .def_107))) (let ((.def_110 (not .def_109))) (let ((.def_111 (and .def_53 .def_0))) (let ((.def_112 (not .def_111))) (let ((.def_113 (or A12 A9))) (let ((.def_114 (and .def_113 .def_112))) (let ((.def_115 (not .def_114))) (let ((.def_116 (or .def_115 .def_110))) (let ((.def_117 (not .def_116))) (let ((.def_118 (and .def_117 .def_105))) (let ((.def_119 (not .def_118))) (let ((.def_120 (or .def_119 .def_94))) (let ((.def_121 (not .def_120))) (let ((.def_122 (or .def_121 .def_63))) (let ((.def_123 (not .def_122))) .def_123)))))))))))))))))))))))))))))))))))))))))))))))))))))))))))))))))))))))))))))))))))))))))))))))))))))))))))))))))))))))))))))
(check-sat)
